problem_generation/data/GISP/train/er_n=60_m=1094_p=0.60_SET2_setparam=100.00_alpha=0.50_512.lp
maximize
OBJ:100x0 + 100x1 + 100x2 + 100x3 + 100x4 + 100x5 + 100x6 + 100x7 + 100x8 + 100x9 + 100x10 + 100x11 + 100x12 + 100x13 + 100x14 + 100x15 + 100x16 + 100x17 + 100x18 + 100x19 + 100x20 + 100x21 + 100x22 + 100x23 + 100x24 + 100x25 + 100x26 + 100x27 + 100x28 + 100x29 + 100x30 + 100x31 + 100x32 + 100x33 + 100x34 + 100x35 + 100x36 + 100x37 + 100x38 + 100x39 + 100x40 + 100x41 + 100x42 + 100x43 + 100x44 + 100x45 + 100x46 + 100x47 + 100x48 + 100x49 + 100x50 + 100x51 + 100x52 + 100x53 + 100x54 + 100x55 + 100x56 + 100x57 + 100x58 + 100x59 - y55_57 - y7_26 - y18_26 - y26_39 - y7_35 - y29_32 - y8_9 - y6_48 - y21_46 - y29_59 - y10_27 - y10_36 - y25_34 - y25_52 - y2_59 - y22_46 - y3_42 - y14_51 - y15_16 - y17_44 - y18_21 - y17_53 - y28_53 - y7_30 - y0_9 - y6_43 - y40_45 - y21_50 - y2_36 - y2_45 - y14_19 - y22_32 - y13_51 - y16_56 - y55_56 - y17_39 - y47_52 - y5_55 - y6_29 - y6_38 - y21_36 - y29_49 - y21_45 - y40_58 - y2_22 - y2_31 - y2_40 - y25_42 - y51_54 - y32_50 - y24_46 - y3_23 - y32_59 - y43_59 - y17_25 - y28_34 - y36_47 - y9_39 - y6_42 - y21_49 - y10_30 - y2_35 - y24_32 - y3_9 - y51_58 - y43_54 - y16_37 - y13_50 - y13_59 - y5_27 - y28_29 - y17_47 - y17_56 - y6_19 - y28_56 - y42_58 - y2_3 - y39_52 - y31_57 - y54_59 - y12_53 - y4_49 - y1_34 - y13_36 - y13_45 - y24_45 - y32_58 - y9_11 - y16_59 - y5_31 - y28_33 - y9_29 - y5_49 - y9_47 - y27_55 - y50_57 - y31_34 - y31_43 - y12_48 - y4_44 - y16_27 - y1_38 - y13_40 - y24_40 - y35_40 - y43_53 - y13_49 - y16_54 - y5_26 - y9_24 - y17_37 - y9_33 - y27_41 - y19_46 - y11_51 - y12_25 - y2_11 - y20_47 - y31_47 - y12_43 - y31_56 - y13_26 - y4_57 - y16_22 - y24_35 - y1_42 - y24_44 - y1_51 - y46_50 - y9_10 - y17_23 - y26_53 - y49_55 - y9_28 - y5_39 - y27_36 - y8_32 - y19_41 - y30_41 - y42_43 - y0_37 - y11_37 - y19_50 - y11_46 - y20_24 - y31_33 - y31_42 - y12_38 - y20_51 - y23_56 - y13_21 - y53_57 - y4_52 - y16_17 - y34_53 - y45_53 - y16_35 - y1_46 - y26_48 - y26_57 - y7_53 - y18_53 - y19_27 - y0_32 - y42_47 - y27_58 - y19_54 - y4_11 - y0_59 - y12_24 - y4_47 - y34_48 - y1_23 - y37_44 - y16_21 - y34_57 - y1_32 - y3_51 - y56_57 - y26_34 - y38_45 - y46_58 - y7_39 - y18_39 - y26_52 - y49_54 - y57_58 - y18_48 - y7_57 - y0_18 - y8_31 - y30_31 - y19_40 - y30_40 - y27_53 - y8_49 - y19_49 - y30_49 - y0_45 - y4_6 - y52_55 - y20_32 - y12_28 - y4_24 - y22_41 - y34_43 - y53_56 - y34_52 - y14_46 - y37_57 - y15_20 - y15_29 - y15_38 - y18_34 - y15_56 - y0_4 - y7_52 - y11_13 - y27_39 - y19_35 - y19_44 - y11_40 - y12_14 - y41_50 - y52_59 - y4_19 - y10_53 - y1_4 - y22_45 - y15_24 - y7_20 - y15_33 - y7_29 - y18_38 - y15_51 - y8_12 - y0_8 - y18_56 - y7_56 - y8_21 - y48_57 - y11_17 - y29_53 - y8_30 - y41_45 - y33_41 - y52_54 - y10_48 - y33_50 - y10_57 - y25_55 - y22_40 - y34_42 - y34_51 - y3_54 - y14_54 - y26_28 - y26_37 - y7_33 - y26_46 - y7_42 - y29_39 - y8_16 - y48_52 - y0_12 - y21_44 - y0_21 - y11_30 - y33_36 - y10_43 - y41_58 - y2_39 - y10_52 - y22_35 - y3_31 - y37_42 - y14_49 - y7_10 - y36_46 - y18_19 - y47_55 - y28_51 - y18_37 - y9_56 - y29_43 - y40_43 - y21_39 - y0_16 - y6_50 - y6_59 - y10_20 - y10_29 - y41_44 - y25_36 - y44_49 - y2_43 - y10_56 - y14_17 - y14_26 - y13_58 - y3_35 - y3_44 - y15_18 - y36_59 - y5_53 - y17_55 - y9_51 - y6_27 - y21_25 - y0_2 - y21_52 - y10_24 - y2_29 - y2_38 - y10_51 - y2_47 - y43_48 - y2_56 - y32_57 - y17_32 - y36_45 - y17_41 - y28_41 - y5_57 - y6_22 - y6_31 - y21_29 - y29_42 - y21_38 - y6_49 - y39_55 - y10_28 - y2_24 - y2_33 - y2_42 - y24_39 - y3_16 - y14_16 - y3_25 - y14_25 - y16_44 - y1_55 - y13_57 - y24_57 - y16_53 - y17_18 - y9_23 - y17_36 - y36_49 - y9_32 - y36_58 - y17_54 - y28_54 - y9_59 - y29_37 - y21_33 - y20_46 - y2_19 - y23_51 - y2_37 - y43_47 - y13_43 - y32_56 - y16_39 - y43_56 - y13_52 - y16_48 - y1_59 - y16_57 - y17_22 - y5_38 - y9_36 - y9_45 - y50_55 - y6_30 - y10_18 - y2_14 - y2_23 - y20_59 - y12_55 - y13_20 - y1_27 - y16_25 - y1_36 - y13_47 - y24_47 - y35_47 - y13_56 - y24_56 - y35_56 - y46_53 - y9_13 - y5_24 - y17_26 - y5_33 - y9_31 - y6_7 - y6_16 - y50_59 - y30_53 - y0_49 - y31_36 - y23_32 - y2_18 - y20_54 - y31_54 - y4_55 - y24_33 - y43_46 - y35_42 - y38_44 - y9_17 - y28_30 - y5_37 - y6_11 - y27_43 - y6_20 - y8_39 - y19_48 - y19_57 - y42_59 - y12_18 - y20_31 - y23_27 - y2_4 - y12_36 - y31_49 - y4_32 - y1_17 - y4_50 - y13_28 - y16_24 - y13_37 - y16_42 - y46_52 - y7_51 - y27_29 - y19_34 - y27_47 - y19_52 - y12_13 - y12_22 - y20_35 - y31_35 - y20_44 - y4_27 - y31_44 - y23_40 - y13_14 - y34_46 - y45_46 - y4_54 - y16_28 - y5_9 - y46_47 - y38_43 - y38_52 - y7_55 - y27_42 - y19_38 - y0_34 - y8_47 - y19_47 - y42_49 - y8_56 - y0_52 - y12_17 - y4_22 - y33_58 - y53_54 - y45_50 - y1_25 - y34_59 - y14_53 - y15_27 - y15_36 - y5_13 - y46_51 - y26_45 - y18_41 - y7_41 - y15_54 - y26_54 - y38_56 - y7_50 - y27_28 - y19_24 - y27_37 - y19_33 - y0_38 - y11_38 - y41_48 - y20_25 - y52_57 - y4_17 - y25_49 - y22_34 - y34_45 - y3_39 - y3_48 - y37_50 - y7_18 - y26_31 - y7_27 - y18_36 - y26_49 - y26_58 - y8_19 - y19_37 - y11_33 - y0_42 - y33_57 - y14_34 - y22_47 - y14_43 - y45_58 - y15_17 - y18_22 - y7_31 - y15_44 - y7_40 - y18_40 - y18_49 - y48_50 - y29_46 - y8_23 - y40_55 - y33_34 - y52_56 - y10_50 - y25_48 - y10_59 - y2_55 - y3_20 - y34_35 - y34_44 - y14_38 - y22_51 - y3_47 - y3_56
 Subject to
C1: x0+x1 <=1 
C2: x0+x2-y0_2 <=1 
C3: x0+x3 <=1 
C4: x0+x4-y0_4 <=1 
C5: x0+x6 <=1 
C6: x0+x7 <=1 
C7: x0+x8-y0_8 <=1 
C8: x0+x9-y0_9 <=1 
C9: x0+x11 <=1 
C10: x0+x12-y0_12 <=1 
C11: x0+x13 <=1 
C12: x0+x16-y0_16 <=1 
C13: x0+x18-y0_18 <=1 
C14: x0+x21-y0_21 <=1 
C15: x0+x22 <=1 
C16: x0+x23 <=1 
C17: x0+x25 <=1 
C18: x0+x26 <=1 
C19: x0+x28 <=1 
C20: x0+x32-y0_32 <=1 
C21: x0+x34-y0_34 <=1 
C22: x0+x35 <=1 
C23: x0+x37-y0_37 <=1 
C24: x0+x38-y0_38 <=1 
C25: x0+x39 <=1 
C26: x0+x40 <=1 
C27: x0+x41 <=1 
C28: x0+x42-y0_42 <=1 
C29: x0+x45-y0_45 <=1 
C30: x0+x49-y0_49 <=1 
C31: x0+x50 <=1 
C32: x0+x52-y0_52 <=1 
C33: x0+x59-y0_59 <=1 
C34: x1+x2 <=1 
C35: x1+x4-y1_4 <=1 
C36: x1+x9 <=1 
C37: x1+x12 <=1 
C38: x1+x14 <=1 
C39: x1+x15 <=1 
C40: x1+x16 <=1 
C41: x1+x17-y1_17 <=1 
C42: x1+x18 <=1 
C43: x1+x19 <=1 
C44: x1+x21 <=1 
C45: x1+x23-y1_23 <=1 
C46: x1+x25-y1_25 <=1 
C47: x1+x26 <=1 
C48: x1+x27-y1_27 <=1 
C49: x1+x28 <=1 
C50: x1+x29 <=1 
C51: x1+x30 <=1 
C52: x1+x32-y1_32 <=1 
C53: x1+x33 <=1 
C54: x1+x34-y1_34 <=1 
C55: x1+x36-y1_36 <=1 
C56: x1+x38-y1_38 <=1 
C57: x1+x41 <=1 
C58: x1+x42-y1_42 <=1 
C59: x1+x45 <=1 
C60: x1+x46-y1_46 <=1 
C61: x1+x51-y1_51 <=1 
C62: x1+x55-y1_55 <=1 
C63: x1+x56 <=1 
C64: x1+x59-y1_59 <=1 
C65: x2+x3-y2_3 <=1 
C66: x2+x4-y2_4 <=1 
C67: x2+x6 <=1 
C68: x2+x9 <=1 
C69: x2+x11-y2_11 <=1 
C70: x2+x14-y2_14 <=1 
C71: x2+x15 <=1 
C72: x2+x18-y2_18 <=1 
C73: x2+x19-y2_19 <=1 
C74: x2+x21 <=1 
C75: x2+x22-y2_22 <=1 
C76: x2+x23-y2_23 <=1 
C77: x2+x24-y2_24 <=1 
C78: x2+x28 <=1 
C79: x2+x29-y2_29 <=1 
C80: x2+x31-y2_31 <=1 
C81: x2+x33-y2_33 <=1 
C82: x2+x35-y2_35 <=1 
C83: x2+x36-y2_36 <=1 
C84: x2+x37-y2_37 <=1 
C85: x2+x38-y2_38 <=1 
C86: x2+x39-y2_39 <=1 
C87: x2+x40-y2_40 <=1 
C88: x2+x41 <=1 
C89: x2+x42-y2_42 <=1 
C90: x2+x43-y2_43 <=1 
C91: x2+x45-y2_45 <=1 
C92: x2+x46 <=1 
C93: x2+x47-y2_47 <=1 
C94: x2+x50 <=1 
C95: x2+x55-y2_55 <=1 
C96: x2+x56-y2_56 <=1 
C97: x2+x58 <=1 
C98: x2+x59-y2_59 <=1 
C99: x3+x5 <=1 
C100: x3+x6 <=1 
C101: x3+x7 <=1 
C102: x3+x8 <=1 
C103: x3+x9-y3_9 <=1 
C104: x3+x10 <=1 
C105: x3+x11 <=1 
C106: x3+x13 <=1 
C107: x3+x14 <=1 
C108: x3+x16-y3_16 <=1 
C109: x3+x17 <=1 
C110: x3+x18 <=1 
C111: x3+x20-y3_20 <=1 
C112: x3+x23-y3_23 <=1 
C113: x3+x24 <=1 
C114: x3+x25-y3_25 <=1 
C115: x3+x26 <=1 
C116: x3+x28 <=1 
C117: x3+x29 <=1 
C118: x3+x30 <=1 
C119: x3+x31-y3_31 <=1 
C120: x3+x35-y3_35 <=1 
C121: x3+x36 <=1 
C122: x3+x39-y3_39 <=1 
C123: x3+x41 <=1 
C124: x3+x42-y3_42 <=1 
C125: x3+x43 <=1 
C126: x3+x44-y3_44 <=1 
C127: x3+x47-y3_47 <=1 
C128: x3+x48-y3_48 <=1 
C129: x3+x50 <=1 
C130: x3+x51-y3_51 <=1 
C131: x3+x52 <=1 
C132: x3+x54-y3_54 <=1 
C133: x3+x56-y3_56 <=1 
C134: x4+x6-y4_6 <=1 
C135: x4+x9 <=1 
C136: x4+x11-y4_11 <=1 
C137: x4+x15 <=1 
C138: x4+x17-y4_17 <=1 
C139: x4+x18 <=1 
C140: x4+x19-y4_19 <=1 
C141: x4+x20 <=1 
C142: x4+x21 <=1 
C143: x4+x22-y4_22 <=1 
C144: x4+x24-y4_24 <=1 
C145: x4+x27-y4_27 <=1 
C146: x4+x29 <=1 
C147: x4+x32-y4_32 <=1 
C148: x4+x33 <=1 
C149: x4+x36 <=1 
C150: x4+x37 <=1 
C151: x4+x38 <=1 
C152: x4+x39 <=1 
C153: x4+x41 <=1 
C154: x4+x42 <=1 
C155: x4+x44-y4_44 <=1 
C156: x4+x46 <=1 
C157: x4+x47-y4_47 <=1 
C158: x4+x49-y4_49 <=1 
C159: x4+x50-y4_50 <=1 
C160: x4+x52-y4_52 <=1 
C161: x4+x54-y4_54 <=1 
C162: x4+x55-y4_55 <=1 
C163: x4+x57-y4_57 <=1 
C164: x5+x7 <=1 
C165: x5+x9-y5_9 <=1 
C166: x5+x12 <=1 
C167: x5+x13-y5_13 <=1 
C168: x5+x15 <=1 
C169: x5+x18 <=1 
C170: x5+x20 <=1 
C171: x5+x21 <=1 
C172: x5+x23 <=1 
C173: x5+x24-y5_24 <=1 
C174: x5+x26-y5_26 <=1 
C175: x5+x27-y5_27 <=1 
C176: x5+x29 <=1 
C177: x5+x30 <=1 
C178: x5+x31-y5_31 <=1 
C179: x5+x33-y5_33 <=1 
C180: x5+x34 <=1 
C181: x5+x36 <=1 
C182: x5+x37-y5_37 <=1 
C183: x5+x38-y5_38 <=1 
C184: x5+x39-y5_39 <=1 
C185: x5+x41 <=1 
C186: x5+x45 <=1 
C187: x5+x47 <=1 
C188: x5+x48 <=1 
C189: x5+x49-y5_49 <=1 
C190: x5+x53-y5_53 <=1 
C191: x5+x54 <=1 
C192: x5+x55-y5_55 <=1 
C193: x5+x56 <=1 
C194: x5+x57-y5_57 <=1 
C195: x5+x59 <=1 
C196: x6+x7-y6_7 <=1 
C197: x6+x8 <=1 
C198: x6+x9 <=1 
C199: x6+x10 <=1 
C200: x6+x11-y6_11 <=1 
C201: x6+x12 <=1 
C202: x6+x13 <=1 
C203: x6+x16-y6_16 <=1 
C204: x6+x17 <=1 
C205: x6+x19-y6_19 <=1 
C206: x6+x20-y6_20 <=1 
C207: x6+x21 <=1 
C208: x6+x22-y6_22 <=1 
C209: x6+x24 <=1 
C210: x6+x27-y6_27 <=1 
C211: x6+x29-y6_29 <=1 
C212: x6+x30-y6_30 <=1 
C213: x6+x31-y6_31 <=1 
C214: x6+x34 <=1 
C215: x6+x35 <=1 
C216: x6+x38-y6_38 <=1 
C217: x6+x39 <=1 
C218: x6+x40 <=1 
C219: x6+x41 <=1 
C220: x6+x42-y6_42 <=1 
C221: x6+x43-y6_43 <=1 
C222: x6+x48-y6_48 <=1 
C223: x6+x49-y6_49 <=1 
C224: x6+x50-y6_50 <=1 
C225: x6+x51 <=1 
C226: x6+x53 <=1 
C227: x6+x54 <=1 
C228: x6+x55 <=1 
C229: x6+x59-y6_59 <=1 
C230: x7+x8 <=1 
C231: x7+x10-y7_10 <=1 
C232: x7+x14 <=1 
C233: x7+x18-y7_18 <=1 
C234: x7+x20-y7_20 <=1 
C235: x7+x22 <=1 
C236: x7+x24 <=1 
C237: x7+x25 <=1 
C238: x7+x26-y7_26 <=1 
C239: x7+x27-y7_27 <=1 
C240: x7+x28 <=1 
C241: x7+x29-y7_29 <=1 
C242: x7+x30-y7_30 <=1 
C243: x7+x31-y7_31 <=1 
C244: x7+x33-y7_33 <=1 
C245: x7+x35-y7_35 <=1 
C246: x7+x37 <=1 
C247: x7+x38 <=1 
C248: x7+x39-y7_39 <=1 
C249: x7+x40-y7_40 <=1 
C250: x7+x41-y7_41 <=1 
C251: x7+x42-y7_42 <=1 
C252: x7+x43 <=1 
C253: x7+x44 <=1 
C254: x7+x45 <=1 
C255: x7+x46 <=1 
C256: x7+x49 <=1 
C257: x7+x50-y7_50 <=1 
C258: x7+x51-y7_51 <=1 
C259: x7+x52-y7_52 <=1 
C260: x7+x53-y7_53 <=1 
C261: x7+x55-y7_55 <=1 
C262: x7+x56-y7_56 <=1 
C263: x7+x57-y7_57 <=1 
C264: x7+x59 <=1 
C265: x8+x9-y8_9 <=1 
C266: x8+x11 <=1 
C267: x8+x12-y8_12 <=1 
C268: x8+x13 <=1 
C269: x8+x14 <=1 
C270: x8+x16-y8_16 <=1 
C271: x8+x19-y8_19 <=1 
C272: x8+x21-y8_21 <=1 
C273: x8+x22 <=1 
C274: x8+x23-y8_23 <=1 
C275: x8+x24 <=1 
C276: x8+x29 <=1 
C277: x8+x30-y8_30 <=1 
C278: x8+x31-y8_31 <=1 
C279: x8+x32-y8_32 <=1 
C280: x8+x33 <=1 
C281: x8+x35 <=1 
C282: x8+x37 <=1 
C283: x8+x38 <=1 
C284: x8+x39-y8_39 <=1 
C285: x8+x40 <=1 
C286: x8+x41 <=1 
C287: x8+x45 <=1 
C288: x8+x46 <=1 
C289: x8+x47-y8_47 <=1 
C290: x8+x49-y8_49 <=1 
C291: x8+x50 <=1 
C292: x8+x51 <=1 
C293: x8+x52 <=1 
C294: x8+x56-y8_56 <=1 
C295: x8+x57 <=1 
C296: x9+x10-y9_10 <=1 
C297: x9+x11-y9_11 <=1 
C298: x9+x12 <=1 
C299: x9+x13-y9_13 <=1 
C300: x9+x15 <=1 
C301: x9+x17-y9_17 <=1 
C302: x9+x19 <=1 
C303: x9+x20 <=1 
C304: x9+x23-y9_23 <=1 
C305: x9+x24-y9_24 <=1 
C306: x9+x28-y9_28 <=1 
C307: x9+x29-y9_29 <=1 
C308: x9+x31-y9_31 <=1 
C309: x9+x32-y9_32 <=1 
C310: x9+x33-y9_33 <=1 
C311: x9+x34 <=1 
C312: x9+x35 <=1 
C313: x9+x36-y9_36 <=1 
C314: x9+x39-y9_39 <=1 
C315: x9+x41 <=1 
C316: x9+x45-y9_45 <=1 
C317: x9+x46 <=1 
C318: x9+x47-y9_47 <=1 
C319: x9+x48 <=1 
C320: x9+x51-y9_51 <=1 
C321: x9+x52 <=1 
C322: x9+x53 <=1 
C323: x9+x54 <=1 
C324: x9+x56-y9_56 <=1 
C325: x9+x59-y9_59 <=1 
C326: x10+x18-y10_18 <=1 
C327: x10+x20-y10_20 <=1 
C328: x10+x24-y10_24 <=1 
C329: x10+x27-y10_27 <=1 
C330: x10+x28-y10_28 <=1 
C331: x10+x29-y10_29 <=1 
C332: x10+x30-y10_30 <=1 
C333: x10+x33 <=1 
C334: x10+x34 <=1 
C335: x10+x35 <=1 
C336: x10+x36-y10_36 <=1 
C337: x10+x37 <=1 
C338: x10+x40 <=1 
C339: x10+x43-y10_43 <=1 
C340: x10+x44 <=1 
C341: x10+x47 <=1 
C342: x10+x48-y10_48 <=1 
C343: x10+x50-y10_50 <=1 
C344: x10+x51-y10_51 <=1 
C345: x10+x52-y10_52 <=1 
C346: x10+x53-y10_53 <=1 
C347: x10+x56-y10_56 <=1 
C348: x10+x57-y10_57 <=1 
C349: x10+x58 <=1 
C350: x10+x59-y10_59 <=1 
C351: x11+x13-y11_13 <=1 
C352: x11+x15 <=1 
C353: x11+x16 <=1 
C354: x11+x17-y11_17 <=1 
C355: x11+x20 <=1 
C356: x11+x21 <=1 
C357: x11+x22 <=1 
C358: x11+x24 <=1 
C359: x11+x27 <=1 
C360: x11+x29 <=1 
C361: x11+x30-y11_30 <=1 
C362: x11+x33-y11_33 <=1 
C363: x11+x35 <=1 
C364: x11+x37-y11_37 <=1 
C365: x11+x38-y11_38 <=1 
C366: x11+x40-y11_40 <=1 
C367: x11+x46-y11_46 <=1 
C368: x11+x47 <=1 
C369: x11+x48 <=1 
C370: x11+x49 <=1 
C371: x11+x51-y11_51 <=1 
C372: x11+x52 <=1 
C373: x11+x54 <=1 
C374: x11+x57 <=1 
C375: x11+x58 <=1 
C376: x11+x59 <=1 
C377: x12+x13-y12_13 <=1 
C378: x12+x14-y12_14 <=1 
C379: x12+x15 <=1 
C380: x12+x16 <=1 
C381: x12+x17-y12_17 <=1 
C382: x12+x18-y12_18 <=1 
C383: x12+x21 <=1 
C384: x12+x22-y12_22 <=1 
C385: x12+x24-y12_24 <=1 
C386: x12+x25-y12_25 <=1 
C387: x12+x27 <=1 
C388: x12+x28-y12_28 <=1 
C389: x12+x29 <=1 
C390: x12+x32 <=1 
C391: x12+x33 <=1 
C392: x12+x36-y12_36 <=1 
C393: x12+x37 <=1 
C394: x12+x38-y12_38 <=1 
C395: x12+x40 <=1 
C396: x12+x41 <=1 
C397: x12+x42 <=1 
C398: x12+x43-y12_43 <=1 
C399: x12+x47 <=1 
C400: x12+x48-y12_48 <=1 
C401: x12+x49 <=1 
C402: x12+x50 <=1 
C403: x12+x51 <=1 
C404: x12+x53-y12_53 <=1 
C405: x12+x55-y12_55 <=1 
C406: x12+x58 <=1 
C407: x12+x59 <=1 
C408: x13+x14-y13_14 <=1 
C409: x13+x17 <=1 
C410: x13+x18 <=1 
C411: x13+x20-y13_20 <=1 
C412: x13+x21-y13_21 <=1 
C413: x13+x22 <=1 
C414: x13+x23 <=1 
C415: x13+x25 <=1 
C416: x13+x26-y13_26 <=1 
C417: x13+x27 <=1 
C418: x13+x28-y13_28 <=1 
C419: x13+x31 <=1 
C420: x13+x33 <=1 
C421: x13+x35 <=1 
C422: x13+x36-y13_36 <=1 
C423: x13+x37-y13_37 <=1 
C424: x13+x39 <=1 
C425: x13+x40-y13_40 <=1 
C426: x13+x42 <=1 
C427: x13+x43-y13_43 <=1 
C428: x13+x44 <=1 
C429: x13+x45-y13_45 <=1 
C430: x13+x47-y13_47 <=1 
C431: x13+x49-y13_49 <=1 
C432: x13+x50-y13_50 <=1 
C433: x13+x51-y13_51 <=1 
C434: x13+x52-y13_52 <=1 
C435: x13+x53 <=1 
C436: x13+x54 <=1 
C437: x13+x56-y13_56 <=1 
C438: x13+x57-y13_57 <=1 
C439: x13+x58-y13_58 <=1 
C440: x13+x59-y13_59 <=1 
C441: x14+x16-y14_16 <=1 
C442: x14+x17-y14_17 <=1 
C443: x14+x18 <=1 
C444: x14+x19-y14_19 <=1 
C445: x14+x20 <=1 
C446: x14+x22 <=1 
C447: x14+x23 <=1 
C448: x14+x25-y14_25 <=1 
C449: x14+x26-y14_26 <=1 
C450: x14+x28 <=1 
C451: x14+x31 <=1 
C452: x14+x34-y14_34 <=1 
C453: x14+x35 <=1 
C454: x14+x38-y14_38 <=1 
C455: x14+x40 <=1 
C456: x14+x41 <=1 
C457: x14+x43-y14_43 <=1 
C458: x14+x44 <=1 
C459: x14+x46-y14_46 <=1 
C460: x14+x48 <=1 
C461: x14+x49-y14_49 <=1 
C462: x14+x51-y14_51 <=1 
C463: x14+x53-y14_53 <=1 
C464: x14+x54-y14_54 <=1 
C465: x14+x56 <=1 
C466: x14+x59 <=1 
C467: x15+x16-y15_16 <=1 
C468: x15+x17-y15_17 <=1 
C469: x15+x18-y15_18 <=1 
C470: x15+x19 <=1 
C471: x15+x20-y15_20 <=1 
C472: x15+x23 <=1 
C473: x15+x24-y15_24 <=1 
C474: x15+x27-y15_27 <=1 
C475: x15+x29-y15_29 <=1 
C476: x15+x30 <=1 
C477: x15+x31 <=1 
C478: x15+x32 <=1 
C479: x15+x33-y15_33 <=1 
C480: x15+x34 <=1 
C481: x15+x35 <=1 
C482: x15+x36-y15_36 <=1 
C483: x15+x38-y15_38 <=1 
C484: x15+x40 <=1 
C485: x15+x41 <=1 
C486: x15+x42 <=1 
C487: x15+x43 <=1 
C488: x15+x44-y15_44 <=1 
C489: x15+x45 <=1 
C490: x15+x47 <=1 
C491: x15+x49 <=1 
C492: x15+x50 <=1 
C493: x15+x51-y15_51 <=1 
C494: x15+x54-y15_54 <=1 
C495: x15+x55 <=1 
C496: x15+x56-y15_56 <=1 
C497: x15+x59 <=1 
C498: x16+x17-y16_17 <=1 
C499: x16+x20 <=1 
C500: x16+x21-y16_21 <=1 
C501: x16+x22-y16_22 <=1 
C502: x16+x24-y16_24 <=1 
C503: x16+x25-y16_25 <=1 
C504: x16+x26 <=1 
C505: x16+x27-y16_27 <=1 
C506: x16+x28-y16_28 <=1 
C507: x16+x29 <=1 
C508: x16+x30 <=1 
C509: x16+x33 <=1 
C510: x16+x34 <=1 
C511: x16+x35-y16_35 <=1 
C512: x16+x36 <=1 
C513: x16+x37-y16_37 <=1 
C514: x16+x39-y16_39 <=1 
C515: x16+x41 <=1 
C516: x16+x42-y16_42 <=1 
C517: x16+x43 <=1 
C518: x16+x44-y16_44 <=1 
C519: x16+x45 <=1 
C520: x16+x46 <=1 
C521: x16+x48-y16_48 <=1 
C522: x16+x49 <=1 
C523: x16+x51 <=1 
C524: x16+x52 <=1 
C525: x16+x53-y16_53 <=1 
C526: x16+x54-y16_54 <=1 
C527: x16+x56-y16_56 <=1 
C528: x16+x57-y16_57 <=1 
C529: x16+x59-y16_59 <=1 
C530: x17+x18-y17_18 <=1 
C531: x17+x19 <=1 
C532: x17+x22-y17_22 <=1 
C533: x17+x23-y17_23 <=1 
C534: x17+x25-y17_25 <=1 
C535: x17+x26-y17_26 <=1 
C536: x17+x28 <=1 
C537: x17+x31 <=1 
C538: x17+x32-y17_32 <=1 
C539: x17+x36-y17_36 <=1 
C540: x17+x37-y17_37 <=1 
C541: x17+x39-y17_39 <=1 
C542: x17+x41-y17_41 <=1 
C543: x17+x43 <=1 
C544: x17+x44-y17_44 <=1 
C545: x17+x45 <=1 
C546: x17+x46 <=1 
C547: x17+x47-y17_47 <=1 
C548: x17+x52 <=1 
C549: x17+x53-y17_53 <=1 
C550: x17+x54-y17_54 <=1 
C551: x17+x55-y17_55 <=1 
C552: x17+x56-y17_56 <=1 
C553: x18+x19-y18_19 <=1 
C554: x18+x20 <=1 
C555: x18+x21-y18_21 <=1 
C556: x18+x22-y18_22 <=1 
C557: x18+x25 <=1 
C558: x18+x26-y18_26 <=1 
C559: x18+x28 <=1 
C560: x18+x31 <=1 
C561: x18+x34-y18_34 <=1 
C562: x18+x35 <=1 
C563: x18+x36-y18_36 <=1 
C564: x18+x37-y18_37 <=1 
C565: x18+x38-y18_38 <=1 
C566: x18+x39-y18_39 <=1 
C567: x18+x40-y18_40 <=1 
C568: x18+x41-y18_41 <=1 
C569: x18+x45 <=1 
C570: x18+x48-y18_48 <=1 
C571: x18+x49-y18_49 <=1 
C572: x18+x50 <=1 
C573: x18+x53-y18_53 <=1 
C574: x18+x54 <=1 
C575: x18+x56-y18_56 <=1 
C576: x18+x58 <=1 
C577: x18+x59 <=1 
C578: x19+x20 <=1 
C579: x19+x24-y19_24 <=1 
C580: x19+x25 <=1 
C581: x19+x26 <=1 
C582: x19+x27-y19_27 <=1 
C583: x19+x30 <=1 
C584: x19+x33-y19_33 <=1 
C585: x19+x34-y19_34 <=1 
C586: x19+x35-y19_35 <=1 
C587: x19+x37-y19_37 <=1 
C588: x19+x38-y19_38 <=1 
C589: x19+x40-y19_40 <=1 
C590: x19+x41-y19_41 <=1 
C591: x19+x44-y19_44 <=1 
C592: x19+x46-y19_46 <=1 
C593: x19+x47-y19_47 <=1 
C594: x19+x48-y19_48 <=1 
C595: x19+x49-y19_49 <=1 
C596: x19+x50-y19_50 <=1 
C597: x19+x52-y19_52 <=1 
C598: x19+x54-y19_54 <=1 
C599: x19+x57-y19_57 <=1 
C600: x19+x58 <=1 
C601: x20+x21 <=1 
C602: x20+x22 <=1 
C603: x20+x24-y20_24 <=1 
C604: x20+x25-y20_25 <=1 
C605: x20+x26 <=1 
C606: x20+x28 <=1 
C607: x20+x30 <=1 
C608: x20+x31-y20_31 <=1 
C609: x20+x32-y20_32 <=1 
C610: x20+x33 <=1 
C611: x20+x35-y20_35 <=1 
C612: x20+x38 <=1 
C613: x20+x44-y20_44 <=1 
C614: x20+x46-y20_46 <=1 
C615: x20+x47-y20_47 <=1 
C616: x20+x49 <=1 
C617: x20+x51-y20_51 <=1 
C618: x20+x52 <=1 
C619: x20+x54-y20_54 <=1 
C620: x20+x58 <=1 
C621: x20+x59-y20_59 <=1 
C622: x21+x22 <=1 
C623: x21+x23 <=1 
C624: x21+x24 <=1 
C625: x21+x25-y21_25 <=1 
C626: x21+x27 <=1 
C627: x21+x28 <=1 
C628: x21+x29-y21_29 <=1 
C629: x21+x31 <=1 
C630: x21+x32 <=1 
C631: x21+x33-y21_33 <=1 
C632: x21+x34 <=1 
C633: x21+x35 <=1 
C634: x21+x36-y21_36 <=1 
C635: x21+x38-y21_38 <=1 
C636: x21+x39-y21_39 <=1 
C637: x21+x40 <=1 
C638: x21+x41 <=1 
C639: x21+x44-y21_44 <=1 
C640: x21+x45-y21_45 <=1 
C641: x21+x46-y21_46 <=1 
C642: x21+x47 <=1 
C643: x21+x48 <=1 
C644: x21+x49-y21_49 <=1 
C645: x21+x50-y21_50 <=1 
C646: x21+x51 <=1 
C647: x21+x52-y21_52 <=1 
C648: x21+x54 <=1 
C649: x21+x55 <=1 
C650: x21+x58 <=1 
C651: x22+x28 <=1 
C652: x22+x30 <=1 
C653: x22+x31 <=1 
C654: x22+x32-y22_32 <=1 
C655: x22+x34-y22_34 <=1 
C656: x22+x35-y22_35 <=1 
C657: x22+x38 <=1 
C658: x22+x40-y22_40 <=1 
C659: x22+x41-y22_41 <=1 
C660: x22+x42 <=1 
C661: x22+x45-y22_45 <=1 
C662: x22+x46-y22_46 <=1 
C663: x22+x47-y22_47 <=1 
C664: x22+x48 <=1 
C665: x22+x50 <=1 
C666: x22+x51-y22_51 <=1 
C667: x22+x53 <=1 
C668: x22+x54 <=1 
C669: x23+x24 <=1 
C670: x23+x27-y23_27 <=1 
C671: x23+x30 <=1 
C672: x23+x31 <=1 
C673: x23+x32-y23_32 <=1 
C674: x23+x33 <=1 
C675: x23+x34 <=1 
C676: x23+x38 <=1 
C677: x23+x40-y23_40 <=1 
C678: x23+x43 <=1 
C679: x23+x44 <=1 
C680: x23+x45 <=1 
C681: x23+x46 <=1 
C682: x23+x47 <=1 
C683: x23+x48 <=1 
C684: x23+x50 <=1 
C685: x23+x51-y23_51 <=1 
C686: x23+x52 <=1 
C687: x23+x55 <=1 
C688: x23+x56-y23_56 <=1 
C689: x23+x58 <=1 
C690: x24+x25 <=1 
C691: x24+x26 <=1 
C692: x24+x27 <=1 
C693: x24+x28 <=1 
C694: x24+x31 <=1 
C695: x24+x32-y24_32 <=1 
C696: x24+x33-y24_33 <=1 
C697: x24+x35-y24_35 <=1 
C698: x24+x36 <=1 
C699: x24+x37 <=1 
C700: x24+x39-y24_39 <=1 
C701: x24+x40-y24_40 <=1 
C702: x24+x42 <=1 
C703: x24+x43 <=1 
C704: x24+x44-y24_44 <=1 
C705: x24+x45-y24_45 <=1 
C706: x24+x46-y24_46 <=1 
C707: x24+x47-y24_47 <=1 
C708: x24+x48 <=1 
C709: x24+x49 <=1 
C710: x24+x52 <=1 
C711: x24+x54 <=1 
C712: x24+x55 <=1 
C713: x24+x56-y24_56 <=1 
C714: x24+x57-y24_57 <=1 
C715: x24+x59 <=1 
C716: x25+x27 <=1 
C717: x25+x28 <=1 
C718: x25+x32 <=1 
C719: x25+x33 <=1 
C720: x25+x34-y25_34 <=1 
C721: x25+x36-y25_36 <=1 
C722: x25+x37 <=1 
C723: x25+x38 <=1 
C724: x25+x42-y25_42 <=1 
C725: x25+x43 <=1 
C726: x25+x45 <=1 
C727: x25+x46 <=1 
C728: x25+x48-y25_48 <=1 
C729: x25+x49-y25_49 <=1 
C730: x25+x52-y25_52 <=1 
C731: x25+x53 <=1 
C732: x25+x54 <=1 
C733: x25+x55-y25_55 <=1 
C734: x25+x56 <=1 
C735: x25+x57 <=1 
C736: x25+x59 <=1 
C737: x26+x27 <=1 
C738: x26+x28-y26_28 <=1 
C739: x26+x31-y26_31 <=1 
C740: x26+x32 <=1 
C741: x26+x33 <=1 
C742: x26+x34-y26_34 <=1 
C743: x26+x37-y26_37 <=1 
C744: x26+x38 <=1 
C745: x26+x39-y26_39 <=1 
C746: x26+x41 <=1 
C747: x26+x43 <=1 
C748: x26+x45-y26_45 <=1 
C749: x26+x46-y26_46 <=1 
C750: x26+x47 <=1 
C751: x26+x48-y26_48 <=1 
C752: x26+x49-y26_49 <=1 
C753: x26+x51 <=1 
C754: x26+x52-y26_52 <=1 
C755: x26+x53-y26_53 <=1 
C756: x26+x54-y26_54 <=1 
C757: x26+x55 <=1 
C758: x26+x57-y26_57 <=1 
C759: x26+x58-y26_58 <=1 
C760: x26+x59 <=1 
C761: x27+x28-y27_28 <=1 
C762: x27+x29-y27_29 <=1 
C763: x27+x31 <=1 
C764: x27+x32 <=1 
C765: x27+x36-y27_36 <=1 
C766: x27+x37-y27_37 <=1 
C767: x27+x39-y27_39 <=1 
C768: x27+x40 <=1 
C769: x27+x41-y27_41 <=1 
C770: x27+x42-y27_42 <=1 
C771: x27+x43-y27_43 <=1 
C772: x27+x47-y27_47 <=1 
C773: x27+x48 <=1 
C774: x27+x49 <=1 
C775: x27+x50 <=1 
C776: x27+x51 <=1 
C777: x27+x52 <=1 
C778: x27+x53-y27_53 <=1 
C779: x27+x54 <=1 
C780: x27+x55-y27_55 <=1 
C781: x27+x58-y27_58 <=1 
C782: x28+x29-y28_29 <=1 
C783: x28+x30-y28_30 <=1 
C784: x28+x31 <=1 
C785: x28+x33-y28_33 <=1 
C786: x28+x34-y28_34 <=1 
C787: x28+x35 <=1 
C788: x28+x36 <=1 
C789: x28+x37 <=1 
C790: x28+x41-y28_41 <=1 
C791: x28+x43 <=1 
C792: x28+x44 <=1 
C793: x28+x45 <=1 
C794: x28+x46 <=1 
C795: x28+x47 <=1 
C796: x28+x48 <=1 
C797: x28+x51-y28_51 <=1 
C798: x28+x52 <=1 
C799: x28+x53-y28_53 <=1 
C800: x28+x54-y28_54 <=1 
C801: x28+x55 <=1 
C802: x28+x56-y28_56 <=1 
C803: x29+x32-y29_32 <=1 
C804: x29+x33 <=1 
C805: x29+x34 <=1 
C806: x29+x37-y29_37 <=1 
C807: x29+x39-y29_39 <=1 
C808: x29+x40 <=1 
C809: x29+x42-y29_42 <=1 
C810: x29+x43-y29_43 <=1 
C811: x29+x45 <=1 
C812: x29+x46-y29_46 <=1 
C813: x29+x47 <=1 
C814: x29+x48 <=1 
C815: x29+x49-y29_49 <=1 
C816: x29+x50 <=1 
C817: x29+x51 <=1 
C818: x29+x52 <=1 
C819: x29+x53-y29_53 <=1 
C820: x29+x54 <=1 
C821: x29+x56 <=1 
C822: x29+x58 <=1 
C823: x29+x59-y29_59 <=1 
C824: x30+x31-y30_31 <=1 
C825: x30+x34 <=1 
C826: x30+x36 <=1 
C827: x30+x38 <=1 
C828: x30+x40-y30_40 <=1 
C829: x30+x41-y30_41 <=1 
C830: x30+x43 <=1 
C831: x30+x46 <=1 
C832: x30+x47 <=1 
C833: x30+x48 <=1 
C834: x30+x49-y30_49 <=1 
C835: x30+x52 <=1 
C836: x30+x53-y30_53 <=1 
C837: x30+x56 <=1 
C838: x31+x33-y31_33 <=1 
C839: x31+x34-y31_34 <=1 
C840: x31+x35-y31_35 <=1 
C841: x31+x36-y31_36 <=1 
C842: x31+x40 <=1 
C843: x31+x41 <=1 
C844: x31+x42-y31_42 <=1 
C845: x31+x43-y31_43 <=1 
C846: x31+x44-y31_44 <=1 
C847: x31+x45 <=1 
C848: x31+x47-y31_47 <=1 
C849: x31+x49-y31_49 <=1 
C850: x31+x52 <=1 
C851: x31+x54-y31_54 <=1 
C852: x31+x55 <=1 
C853: x31+x56-y31_56 <=1 
C854: x31+x57-y31_57 <=1 
C855: x31+x58 <=1 
C856: x32+x33 <=1 
C857: x32+x34 <=1 
C858: x32+x35 <=1 
C859: x32+x36 <=1 
C860: x32+x37 <=1 
C861: x32+x39 <=1 
C862: x32+x40 <=1 
C863: x32+x44 <=1 
C864: x32+x45 <=1 
C865: x32+x48 <=1 
C866: x32+x50-y32_50 <=1 
C867: x32+x51 <=1 
C868: x32+x53 <=1 
C869: x32+x55 <=1 
C870: x32+x56-y32_56 <=1 
C871: x32+x57-y32_57 <=1 
C872: x32+x58-y32_58 <=1 
C873: x32+x59-y32_59 <=1 
C874: x33+x34-y33_34 <=1 
C875: x33+x35 <=1 
C876: x33+x36-y33_36 <=1 
C877: x33+x37 <=1 
C878: x33+x39 <=1 
C879: x33+x40 <=1 
C880: x33+x41-y33_41 <=1 
C881: x33+x45 <=1 
C882: x33+x48 <=1 
C883: x33+x50-y33_50 <=1 
C884: x33+x52 <=1 
C885: x33+x57-y33_57 <=1 
C886: x33+x58-y33_58 <=1 
C887: x33+x59 <=1 
C888: x34+x35-y34_35 <=1 
C889: x34+x36 <=1 
C890: x34+x42-y34_42 <=1 
C891: x34+x43-y34_43 <=1 
C892: x34+x44-y34_44 <=1 
C893: x34+x45-y34_45 <=1 
C894: x34+x46-y34_46 <=1 
C895: x34+x47 <=1 
C896: x34+x48-y34_48 <=1 
C897: x34+x49 <=1 
C898: x34+x50 <=1 
C899: x34+x51-y34_51 <=1 
C900: x34+x52-y34_52 <=1 
C901: x34+x53-y34_53 <=1 
C902: x34+x55 <=1 
C903: x34+x57-y34_57 <=1 
C904: x34+x58 <=1 
C905: x34+x59-y34_59 <=1 
C906: x35+x40-y35_40 <=1 
C907: x35+x41 <=1 
C908: x35+x42-y35_42 <=1 
C909: x35+x47-y35_47 <=1 
C910: x35+x48 <=1 
C911: x35+x53 <=1 
C912: x35+x54 <=1 
C913: x35+x55 <=1 
C914: x35+x56-y35_56 <=1 
C915: x35+x58 <=1 
C916: x36+x39 <=1 
C917: x36+x40 <=1 
C918: x36+x43 <=1 
C919: x36+x45-y36_45 <=1 
C920: x36+x46-y36_46 <=1 
C921: x36+x47-y36_47 <=1 
C922: x36+x48 <=1 
C923: x36+x49-y36_49 <=1 
C924: x36+x50 <=1 
C925: x36+x51 <=1 
C926: x36+x53 <=1 
C927: x36+x55 <=1 
C928: x36+x56 <=1 
C929: x36+x58-y36_58 <=1 
C930: x36+x59-y36_59 <=1 
C931: x37+x41 <=1 
C932: x37+x42-y37_42 <=1 
C933: x37+x43 <=1 
C934: x37+x44-y37_44 <=1 
C935: x37+x46 <=1 
C936: x37+x47 <=1 
C937: x37+x48 <=1 
C938: x37+x49 <=1 
C939: x37+x50-y37_50 <=1 
C940: x37+x51 <=1 
C941: x37+x55 <=1 
C942: x37+x57-y37_57 <=1 
C943: x38+x41 <=1 
C944: x38+x42 <=1 
C945: x38+x43-y38_43 <=1 
C946: x38+x44-y38_44 <=1 
C947: x38+x45-y38_45 <=1 
C948: x38+x46 <=1 
C949: x38+x47 <=1 
C950: x38+x49 <=1 
C951: x38+x51 <=1 
C952: x38+x52-y38_52 <=1 
C953: x38+x55 <=1 
C954: x38+x56-y38_56 <=1 
C955: x38+x57 <=1 
C956: x38+x59 <=1 
C957: x39+x41 <=1 
C958: x39+x46 <=1 
C959: x39+x51 <=1 
C960: x39+x52-y39_52 <=1 
C961: x39+x55-y39_55 <=1 
C962: x39+x57 <=1 
C963: x39+x58 <=1 
C964: x39+x59 <=1 
C965: x40+x41 <=1 
C966: x40+x42 <=1 
C967: x40+x43-y40_43 <=1 
C968: x40+x44 <=1 
C969: x40+x45-y40_45 <=1 
C970: x40+x46 <=1 
C971: x40+x48 <=1 
C972: x40+x53 <=1 
C973: x40+x54 <=1 
C974: x40+x55-y40_55 <=1 
C975: x40+x56 <=1 
C976: x40+x57 <=1 
C977: x40+x58-y40_58 <=1 
C978: x40+x59 <=1 
C979: x41+x42 <=1 
C980: x41+x44-y41_44 <=1 
C981: x41+x45-y41_45 <=1 
C982: x41+x48-y41_48 <=1 
C983: x41+x50-y41_50 <=1 
C984: x41+x52 <=1 
C985: x41+x53 <=1 
C986: x41+x56 <=1 
C987: x41+x58-y41_58 <=1 
C988: x41+x59 <=1 
C989: x42+x43-y42_43 <=1 
C990: x42+x45 <=1 
C991: x42+x47-y42_47 <=1 
C992: x42+x48 <=1 
C993: x42+x49-y42_49 <=1 
C994: x42+x52 <=1 
C995: x42+x55 <=1 
C996: x42+x56 <=1 
C997: x42+x57 <=1 
C998: x42+x58-y42_58 <=1 
C999: x42+x59-y42_59 <=1 
C1000: x43+x44 <=1 
C1001: x43+x46-y43_46 <=1 
C1002: x43+x47-y43_47 <=1 
C1003: x43+x48-y43_48 <=1 
C1004: x43+x49 <=1 
C1005: x43+x52 <=1 
C1006: x43+x53-y43_53 <=1 
C1007: x43+x54-y43_54 <=1 
C1008: x43+x56-y43_56 <=1 
C1009: x43+x57 <=1 
C1010: x43+x59-y43_59 <=1 
C1011: x44+x45 <=1 
C1012: x44+x49-y44_49 <=1 
C1013: x44+x51 <=1 
C1014: x44+x52 <=1 
C1015: x44+x54 <=1 
C1016: x44+x55 <=1 
C1017: x44+x56 <=1 
C1018: x44+x58 <=1 
C1019: x45+x46-y45_46 <=1 
C1020: x45+x47 <=1 
C1021: x45+x50-y45_50 <=1 
C1022: x45+x51 <=1 
C1023: x45+x52 <=1 
C1024: x45+x53-y45_53 <=1 
C1025: x45+x54 <=1 
C1026: x45+x55 <=1 
C1027: x45+x58-y45_58 <=1 
C1028: x46+x47-y46_47 <=1 
C1029: x46+x50-y46_50 <=1 
C1030: x46+x51-y46_51 <=1 
C1031: x46+x52-y46_52 <=1 
C1032: x46+x53-y46_53 <=1 
C1033: x46+x55 <=1 
C1034: x46+x56 <=1 
C1035: x46+x57 <=1 
C1036: x46+x58-y46_58 <=1 
C1037: x47+x48 <=1 
C1038: x47+x49 <=1 
C1039: x47+x50 <=1 
C1040: x47+x52-y47_52 <=1 
C1041: x47+x53 <=1 
C1042: x47+x55-y47_55 <=1 
C1043: x47+x56 <=1 
C1044: x47+x59 <=1 
C1045: x48+x49 <=1 
C1046: x48+x50-y48_50 <=1 
C1047: x48+x51 <=1 
C1048: x48+x52-y48_52 <=1 
C1049: x48+x53 <=1 
C1050: x48+x54 <=1 
C1051: x48+x55 <=1 
C1052: x48+x57-y48_57 <=1 
C1053: x48+x58 <=1 
C1054: x49+x50 <=1 
C1055: x49+x53 <=1 
C1056: x49+x54-y49_54 <=1 
C1057: x49+x55-y49_55 <=1 
C1058: x49+x56 <=1 
C1059: x49+x57 <=1 
C1060: x49+x58 <=1 
C1061: x50+x51 <=1 
C1062: x50+x52 <=1 
C1063: x50+x53 <=1 
C1064: x50+x55-y50_55 <=1 
C1065: x50+x56 <=1 
C1066: x50+x57-y50_57 <=1 
C1067: x50+x59-y50_59 <=1 
C1068: x51+x52 <=1 
C1069: x51+x53 <=1 
C1070: x51+x54-y51_54 <=1 
C1071: x51+x56 <=1 
C1072: x51+x57 <=1 
C1073: x51+x58-y51_58 <=1 
C1074: x52+x54-y52_54 <=1 
C1075: x52+x55-y52_55 <=1 
C1076: x52+x56-y52_56 <=1 
C1077: x52+x57-y52_57 <=1 
C1078: x52+x58 <=1 
C1079: x52+x59-y52_59 <=1 
C1080: x53+x54-y53_54 <=1 
C1081: x53+x55 <=1 
C1082: x53+x56-y53_56 <=1 
C1083: x53+x57-y53_57 <=1 
C1084: x54+x56 <=1 
C1085: x54+x57 <=1 
C1086: x54+x59-y54_59 <=1 
C1087: x55+x56-y55_56 <=1 
C1088: x55+x57-y55_57 <=1 
C1089: x55+x58 <=1 
C1090: x55+x59 <=1 
C1091: x56+x57-y56_57 <=1 
C1092: x56+x59 <=1 
C1093: x57+x58-y57_58 <=1 
C1094: x57+x59 <=1 

binary
x0
x1
x2
x3
x4
x5
x6
x7
x8
x9
x10
x11
x12
x13
x14
x15
x16
x17
x18
x19
x20
x21
x22
x23
x24
x25
x26
x27
x28
x29
x30
x31
x32
x33
x34
x35
x36
x37
x38
x39
x40
x41
x42
x43
x44
x45
x46
x47
x48
x49
x50
x51
x52
x53
x54
x55
x56
x57
x58
x59
