problem_generation/data/GISP/train/er_n=60_m=1094_p=0.60_SET2_setparam=100.00_alpha=0.50_512.sol
objective value:                                 1174
x9                                                  1 	(obj:100)
x10                                                 1 	(obj:100)
x14                                                 1 	(obj:100)
x17                                                 1 	(obj:100)
x21                                                 1 	(obj:100)
x25                                                 1 	(obj:100)
x26                                                 1 	(obj:100)
x29                                                 1 	(obj:100)
x30                                                 1 	(obj:100)
x39                                                 1 	(obj:100)
x42                                                 1 	(obj:100)
x49                                                 1 	(obj:100)
y26_39                                              1 	(obj:-1)
y17_39                                              1 	(obj:-1)
y29_49                                              1 	(obj:-1)
y25_42                                              1 	(obj:-1)
y17_25                                              1 	(obj:-1)
y9_39                                               1 	(obj:-1)
y21_49                                              1 	(obj:-1)
y10_30                                              1 	(obj:-1)
y9_29                                               1 	(obj:-1)
y9_10                                               1 	(obj:-1)
y30_49                                              1 	(obj:-1)
y29_39                                              1 	(obj:-1)
y14_49                                              1 	(obj:-1)
y21_39                                              1 	(obj:-1)
y10_29                                              1 	(obj:-1)
y14_17                                              1 	(obj:-1)
y14_26                                              1 	(obj:-1)
y21_25                                              1 	(obj:-1)
y21_29                                              1 	(obj:-1)
y29_42                                              1 	(obj:-1)
y14_25                                              1 	(obj:-1)
y17_26                                              1 	(obj:-1)
y9_17                                               1 	(obj:-1)
y42_49                                              1 	(obj:-1)
y25_49                                              1 	(obj:-1)
y26_49                                              1 	(obj:-1)
